certificates/rado_a15_c249_N56.cnf
c Rad2 upper bound instance: x1 + 15*x2 - x3 = 249, interval [1,56]
p cnf 56 416
1 7 17 0
-1 -7 -17 0
1 18 22 0
-1 -18 -22 0
1 19 37 0
-1 -19 -37 0
1 20 52 0
-1 -20 -52 0
2 8 17 0
-2 -8 -17 0
2 18 23 0
-2 -18 -23 0
2 19 38 0
-2 -19 -38 0
2 20 53 0
-2 -20 -53 0
3 9 17 0
-3 -9 -17 0
3 18 24 0
-3 -18 -24 0
3 19 39 0
-3 -19 -39 0
3 20 54 0
-3 -20 -54 0
4 10 17 0
-4 -10 -17 0
4 18 25 0
-4 -18 -25 0
4 19 40 0
-4 -19 -40 0
4 20 55 0
-4 -20 -55 0
5 11 17 0
-5 -11 -17 0
5 18 26 0
-5 -18 -26 0
5 19 41 0
-5 -19 -41 0
5 20 56 0
-5 -20 -56 0
6 12 17 0
-6 -12 -17 0
6 18 27 0
-6 -18 -27 0
6 19 42 0
-6 -19 -42 0
7 13 17 0
-7 -13 -17 0
7 18 28 0
-7 -18 -28 0
7 19 43 0
-7 -19 -43 0
8 14 17 0
-8 -14 -17 0
8 18 29 0
-8 -18 -29 0
8 19 44 0
-8 -19 -44 0
9 15 17 0
-9 -15 -17 0
9 18 30 0
-9 -18 -30 0
9 19 45 0
-9 -19 -45 0
1 10 16 0
-1 -10 -16 0
10 16 17 0
-10 -16 -17 0
10 18 31 0
-10 -18 -31 0
10 19 46 0
-10 -19 -46 0
2 11 16 0
-2 -11 -16 0
11 17 0
-11 -17 0
11 18 32 0
-11 -18 -32 0
11 19 47 0
-11 -19 -47 0
3 12 16 0
-3 -12 -16 0
12 17 18 0
-12 -17 -18 0
12 18 33 0
-12 -18 -33 0
12 19 48 0
-12 -19 -48 0
4 13 16 0
-4 -13 -16 0
13 17 19 0
-13 -17 -19 0
13 18 34 0
-13 -18 -34 0
13 19 49 0
-13 -19 -49 0
5 14 16 0
-5 -14 -16 0
14 17 20 0
-14 -17 -20 0
14 18 35 0
-14 -18 -35 0
14 19 50 0
-14 -19 -50 0
6 15 16 0
-6 -15 -16 0
15 17 21 0
-15 -17 -21 0
15 18 36 0
-15 -18 -36 0
15 19 51 0
-15 -19 -51 0
7 16 0
-7 -16 0
16 17 22 0
-16 -17 -22 0
16 18 37 0
-16 -18 -37 0
16 19 52 0
-16 -19 -52 0
8 16 17 0
-8 -16 -17 0
17 23 0
-17 -23 0
17 18 38 0
-17 -18 -38 0
17 19 53 0
-17 -19 -53 0
9 16 18 0
-9 -16 -18 0
17 18 24 0
-17 -18 -24 0
18 39 0
-18 -39 0
18 19 54 0
-18 -19 -54 0
10 16 19 0
-10 -16 -19 0
17 19 25 0
-17 -19 -25 0
18 19 40 0
-18 -19 -40 0
19 55 0
-19 -55 0
11 16 20 0
-11 -16 -20 0
17 20 26 0
-17 -20 -26 0
18 20 41 0
-18 -20 -41 0
19 20 56 0
-19 -20 -56 0
12 16 21 0
-12 -16 -21 0
17 21 27 0
-17 -21 -27 0
18 21 42 0
-18 -21 -42 0
13 16 22 0
-13 -16 -22 0
17 22 28 0
-17 -22 -28 0
18 22 43 0
-18 -22 -43 0
14 16 23 0
-14 -16 -23 0
17 23 29 0
-17 -23 -29 0
18 23 44 0
-18 -23 -44 0
15 16 24 0
-15 -16 -24 0
17 24 30 0
-17 -24 -30 0
18 24 45 0
-18 -24 -45 0
1 15 25 0
-1 -15 -25 0
16 25 0
-16 -25 0
17 25 31 0
-17 -25 -31 0
18 25 46 0
-18 -25 -46 0
2 15 26 0
-2 -15 -26 0
16 17 26 0
-16 -17 -26 0
17 26 32 0
-17 -26 -32 0
18 26 47 0
-18 -26 -47 0
3 15 27 0
-3 -15 -27 0
16 18 27 0
-16 -18 -27 0
17 27 33 0
-17 -27 -33 0
18 27 48 0
-18 -27 -48 0
4 15 28 0
-4 -15 -28 0
16 19 28 0
-16 -19 -28 0
17 28 34 0
-17 -28 -34 0
18 28 49 0
-18 -28 -49 0
5 15 29 0
-5 -15 -29 0
16 20 29 0
-16 -20 -29 0
17 29 35 0
-17 -29 -35 0
18 29 50 0
-18 -29 -50 0
6 15 30 0
-6 -15 -30 0
16 21 30 0
-16 -21 -30 0
17 30 36 0
-17 -30 -36 0
18 30 51 0
-18 -30 -51 0
7 15 31 0
-7 -15 -31 0
16 22 31 0
-16 -22 -31 0
17 31 37 0
-17 -31 -37 0
18 31 52 0
-18 -31 -52 0
8 15 32 0
-8 -15 -32 0
16 23 32 0
-16 -23 -32 0
17 32 38 0
-17 -32 -38 0
18 32 53 0
-18 -32 -53 0
9 15 33 0
-9 -15 -33 0
16 24 33 0
-16 -24 -33 0
17 33 39 0
-17 -33 -39 0
18 33 54 0
-18 -33 -54 0
10 15 34 0
-10 -15 -34 0
16 25 34 0
-16 -25 -34 0
17 34 40 0
-17 -34 -40 0
18 34 55 0
-18 -34 -55 0
11 15 35 0
-11 -15 -35 0
16 26 35 0
-16 -26 -35 0
17 35 41 0
-17 -35 -41 0
18 35 56 0
-18 -35 -56 0
12 15 36 0
-12 -15 -36 0
16 27 36 0
-16 -27 -36 0
17 36 42 0
-17 -36 -42 0
13 15 37 0
-13 -15 -37 0
16 28 37 0
-16 -28 -37 0
17 37 43 0
-17 -37 -43 0
14 15 38 0
-14 -15 -38 0
16 29 38 0
-16 -29 -38 0
17 38 44 0
-17 -38 -44 0
15 39 0
-15 -39 0
16 30 39 0
-16 -30 -39 0
17 39 45 0
-17 -39 -45 0
1 14 40 0
-1 -14 -40 0
15 16 40 0
-15 -16 -40 0
16 31 40 0
-16 -31 -40 0
17 40 46 0
-17 -40 -46 0
2 14 41 0
-2 -14 -41 0
15 17 41 0
-15 -17 -41 0
16 32 41 0
-16 -32 -41 0
17 41 47 0
-17 -41 -47 0
3 14 42 0
-3 -14 -42 0
15 18 42 0
-15 -18 -42 0
16 33 42 0
-16 -33 -42 0
17 42 48 0
-17 -42 -48 0
4 14 43 0
-4 -14 -43 0
15 19 43 0
-15 -19 -43 0
16 34 43 0
-16 -34 -43 0
17 43 49 0
-17 -43 -49 0
5 14 44 0
-5 -14 -44 0
15 20 44 0
-15 -20 -44 0
16 35 44 0
-16 -35 -44 0
17 44 50 0
-17 -44 -50 0
6 14 45 0
-6 -14 -45 0
15 21 45 0
-15 -21 -45 0
16 36 45 0
-16 -36 -45 0
17 45 51 0
-17 -45 -51 0
7 14 46 0
-7 -14 -46 0
15 22 46 0
-15 -22 -46 0
16 37 46 0
-16 -37 -46 0
17 46 52 0
-17 -46 -52 0
8 14 47 0
-8 -14 -47 0
15 23 47 0
-15 -23 -47 0
16 38 47 0
-16 -38 -47 0
17 47 53 0
-17 -47 -53 0
9 14 48 0
-9 -14 -48 0
15 24 48 0
-15 -24 -48 0
16 39 48 0
-16 -39 -48 0
17 48 54 0
-17 -48 -54 0
10 14 49 0
-10 -14 -49 0
15 25 49 0
-15 -25 -49 0
16 40 49 0
-16 -40 -49 0
17 49 55 0
-17 -49 -55 0
11 14 50 0
-11 -14 -50 0
15 26 50 0
-15 -26 -50 0
16 41 50 0
-16 -41 -50 0
17 50 56 0
-17 -50 -56 0
12 14 51 0
-12 -14 -51 0
15 27 51 0
-15 -27 -51 0
16 42 51 0
-16 -42 -51 0
13 14 52 0
-13 -14 -52 0
15 28 52 0
-15 -28 -52 0
16 43 52 0
-16 -43 -52 0
14 53 0
-14 -53 0
15 29 53 0
-15 -29 -53 0
16 44 53 0
-16 -44 -53 0
14 15 54 0
-14 -15 -54 0
15 30 54 0
-15 -30 -54 0
16 45 54 0
-16 -45 -54 0
1 13 55 0
-1 -13 -55 0
14 16 55 0
-14 -16 -55 0
15 31 55 0
-15 -31 -55 0
16 46 55 0
-16 -46 -55 0
2 13 56 0
-2 -13 -56 0
14 17 56 0
-14 -17 -56 0
15 32 56 0
-15 -32 -56 0
16 47 56 0
-16 -47 -56 0
