certificates/rado_a15_c249_N56.drat
14 19 -56 0
19 -56 0
d 14 19 -56 0
53 -56 0
-19 -56 0
d -20 -19 -56 0
-56 0
-53 0
14 0
19 0
-55 0
-50 0
17 0
-11 0
-23 0
-25 0
-13 0
-8 0
-20 0
16 0
1 0
2 0
4 0
5 0
-10 0
-7 0
-22 0
-26 0
0
